NAME          
ROWS
 N  OBJ
 L  c1
 L  c2
COLUMNS
    MARKER    'MARKER'                 'INTORG'
    x[1]      c1        815
    x[1]      c2        591
    x[1]      OBJ       -155
    x[2]      c1        450
    x[2]      c2        501
    x[2]      OBJ       -670
    x[3]      c1        851
    x[3]      c2        313
    x[3]      OBJ       -990
    x[4]      c1        763
    x[4]      c2        612
    x[4]      OBJ       -625
    x[5]      c1        466
    x[5]      c2        568
    x[5]      OBJ       -432
    x[6]      c1        404
    x[6]      c2        571
    x[6]      OBJ       -61
    x[7]      c1        70
    x[7]      c2        824
    x[7]      OBJ       -103
    x[8]      c1        422
    x[8]      c2        351
    x[8]      OBJ       -240
    x[9]      c1        13
    x[9]      c2        357
    x[9]      OBJ       -189
    x[10]     c1        504
    x[10]     c2        363
    x[10]     OBJ       -774
    x[11]     c1        369
    x[11]     c2        455
    x[11]     OBJ       -387
    x[12]     c1        9
    x[12]     c2        555
    x[12]     OBJ       -295
    x[13]     c1        196
    x[13]     c2        749
    x[13]     OBJ       -601
    x[14]     c1        85
    x[14]     c2        638
    x[14]     OBJ       -389
    x[15]     c1        877
    x[15]     c2        296
    x[15]     OBJ       -376
    x[16]     c1        126
    x[16]     c2        576
    x[16]     OBJ       -226
    x[17]     c1        226
    x[17]     c2        628
    x[17]     OBJ       -475
    x[18]     c1        838
    x[18]     c2        981
    x[18]     OBJ       -854
    x[19]     c1        580
    x[19]     c2        716
    x[19]     OBJ       -93
    x[20]     c1        283
    x[20]     c2        824
    x[20]     OBJ       -788
    x[21]     c1        585
    x[21]     c2        822
    x[21]     OBJ       -841
    x[22]     c1        978
    x[22]     c2        250
    x[22]     OBJ       -649
    x[23]     c1        291
    x[23]     c2        549
    x[23]     OBJ       -784
    x[24]     c1        7
    x[24]     c2        363
    x[24]     OBJ       -906
    x[25]     c1        741
    x[25]     c2        510
    x[25]     OBJ       -158
    x[26]     c1        957
    x[26]     c2        533
    x[26]     OBJ       -754
    x[27]     c1        255
    x[27]     c2        72
    x[27]     OBJ       -533
    x[28]     c1        892
    x[28]     c2        100
    x[28]     OBJ       -541
    x[29]     c1        26
    x[29]     c2        680
    x[29]     OBJ       -817
    x[30]     c1        844
    x[30]     c2        360
    x[30]     OBJ       -470
    x[31]     c1        621
    x[31]     c2        668
    x[31]     OBJ       -719
    x[32]     c1        859
    x[32]     c2        272
    x[32]     OBJ       -707
    x[33]     c1        390
    x[33]     c2        538
    x[33]     OBJ       -982
    x[34]     c1        913
    x[34]     c2        704
    x[34]     OBJ       -841
    x[35]     c1        833
    x[35]     c2        916
    x[35]     OBJ       -736
    x[36]     c1        440
    x[36]     c2        964
    x[36]     OBJ       -108
    x[37]     c1        461
    x[37]     c2        410
    x[37]     OBJ       -386
    x[38]     c1        643
    x[38]     c2        926
    x[38]     OBJ       -154
    x[39]     c1        530
    x[39]     c2        486
    x[39]     OBJ       -235
    x[40]     c1        866
    x[40]     c2        769
    x[40]     OBJ       -755
    x[41]     c1        76
    x[41]     c2        474
    x[41]     OBJ       -606
    x[42]     c1        125
    x[42]     c2        931
    x[42]     OBJ       -392
    x[43]     c1        229
    x[43]     c2        49
    x[43]     OBJ       -186
    x[44]     c1        666
    x[44]     c2        557
    x[44]     OBJ       -611
    x[45]     c1        572
    x[45]     c2        944
    x[45]     OBJ       -652
    x[46]     c1        661
    x[46]     c2        792
    x[46]     OBJ       -440
    x[47]     c1        633
    x[47]     c2        331
    x[47]     OBJ       -971
    x[48]     c1        609
    x[48]     c2        18
    x[48]     OBJ       -843
    x[49]     c1        678
    x[49]     c2        44
    x[49]     OBJ       -731
    x[50]     c1        856
    x[50]     c2        458
    x[50]     OBJ       -154
RHS
    rhs       c1        12792
    rhs       c2        13480
RANGES
BOUNDS
 BV bounds    x[1]
 BV bounds    x[2]
 BV bounds    x[3]
 BV bounds    x[4]
 BV bounds    x[5]
 BV bounds    x[6]
 BV bounds    x[7]
 BV bounds    x[8]
 BV bounds    x[9]
 BV bounds    x[10]
 BV bounds    x[11]
 BV bounds    x[12]
 BV bounds    x[13]
 BV bounds    x[14]
 BV bounds    x[15]
 BV bounds    x[16]
 BV bounds    x[17]
 BV bounds    x[18]
 BV bounds    x[19]
 BV bounds    x[20]
 BV bounds    x[21]
 BV bounds    x[22]
 BV bounds    x[23]
 BV bounds    x[24]
 BV bounds    x[25]
 BV bounds    x[26]
 BV bounds    x[27]
 BV bounds    x[28]
 BV bounds    x[29]
 BV bounds    x[30]
 BV bounds    x[31]
 BV bounds    x[32]
 BV bounds    x[33]
 BV bounds    x[34]
 BV bounds    x[35]
 BV bounds    x[36]
 BV bounds    x[37]
 BV bounds    x[38]
 BV bounds    x[39]
 BV bounds    x[40]
 BV bounds    x[41]
 BV bounds    x[42]
 BV bounds    x[43]
 BV bounds    x[44]
 BV bounds    x[45]
 BV bounds    x[46]
 BV bounds    x[47]
 BV bounds    x[48]
 BV bounds    x[49]
 BV bounds    x[50]
ENDATA
